8367
8367
8367
8367
8367
8367
8367
8367
8367
8367
8367
8367
8367
8367
8367
8367
8367
8367
8367
8367
8367
8367
8367
8367
8367
8367
8367
8367
8367
8367
8367
8367
8367
8367
8205
8205
8205
8017
8017
8017
8017
8017
8017
8017
8017
8017
8017
8017
8017
8017
8017
8017
8017
8017
8017
8017
8017
8017
8017
8017
8017
8017
8017
7827
7827
7827
7827
7827
7827
7827
7827
7827
7827
7827
7827
7827
7827
7827
7827
7827
7827
7827
7827
7827
7827
7827
7827
7827
7827
7827
7827
7827
7827
7827
7827
7827
7827
7827
7827
7827
7827
7827
7827
7827
7827
7827
7827
7827
7827
7827
7827
7827
7827
7827
7827
7827
7827
7827
7827
7827
7827
7827
7827
7827
7827
7827
7827
7827
7827
7827
7827
7827
7827
7827
7827
7827
7827
7827
7827
7827
7827
7827
7827
7827
7827
7805
7805
7805
7805
7805
7805
7805
7805
7805
7805
7805
7805
7805
7805
7805
7805
7805
7805
7805
7805
7805
7805
7805
7805
7805
7805
7805
7805
7805
7805
7805
7805
7805
7805
7805
7805
7805
7805
7805
7805
7805
7805
7805
7805
7805
7805
7805
7805
7805
7805
7805
7805
7805
7805
7805
7805
7805
7805
7805
7805
7805
7805
7805
7805
7805
7805
7805
7805
7805
7805
7805
7805
7805
7805
7805
7805
7805
7805
7805
7805
7805
7805
7805
7805
7805
7805
7805
7805
7805
7805
7805
7805
7805
7805
7805
7805
7805
7805
7805
7805
7805
7805
7805
7805
7805
7805
7805
7805
7805
7805
7805
7805
7805
7805
7805
7805
7805
7805
7805
7805
7805
7805
7805
7805
7805
7805
7805
7805
7805
7805
7805
7805
7805
7805
7805
7805
7805
7805
7805
7805
7805
7805
7805
7805
7805
7805
7805
7805
7805
7805
7805
7805
7805
7805
7805
7805
7805
7805
7805
7805
7805
7805
7805
7805
7805
7805
7805
7805
7805
7805
7805
7805
7805
7805
7805
7805
7805
7805
7805
7805
7805
7805
7805
7805
7805
7805
7805
7805
7805
7805
7805
7805
7805
7805
7805
7805
7805
7805
7805
7805
7805
7805
7805
7805
7805
7805
7805
7805
7805
7805
7805
7805
7805
7805
7805
7805
7805
7805
7805
7805
7805
7805
7805
7805
7805
7805
7805
7805
7805
7805
7805
7805
7805
7805
7805
7805
7805
7805
7805
7805
7805
7805
7805
7805
7805
7805
7805
7805
7805
7805
7805
7805
7805
7805
7805
7805
7805
7805
7805
7805
7805
7805
7805
7805
7805
7805
7805
7805
7805
7805
7805
7805
7805
7805
7805
7805
7805
7805
7805
7805
7805
7805
7805
7805
7805
7805
7805
7805
7805
7805
7805
7805
7805
7805
7805
7805
7805
7805
7805
7805
7805
7805
7805
7805
7805
7805
7805
7805
7805
7805
7805
7805
7805
7805
7805
7805
7805
7805
7805
7805
7805
7805
7805
7805
7805
7805
7805
7805
7805
7805
7805
7805
7805
7805
7805
7805
7805
7805
7805
7805
7805
7805
7805
7805
7805
7805
7805
7805
7805
7805
7805
7805
7805
7805
7805
7805
7805
7805
7805
7805
7805
7805
7805
7805
7805
7805
7805
7805
7805
7805
7805
7805
7805
7805
7805
7805
7805
7805
7805
7805
7805
7805
7805
7805
7805
7805
7805
7805
7805
7805
7805
7805
7805
7805
7805
7805
7805
7805
7805
7805
7805
7805
7805
7805
7805
7805
7805
7805
7805
7805
7710
7710
7710
7710
7710
7710
7710
7710
7710
7710
7710
7710
7710
7710
7710
7710
7710
7710
7710
7710
7710
7710
7710
7710
7710
7710
7710
7710
7710
7710
7710
7710
7710
7710
7710
7710
7710
7710
7710
7710
7710
7710
7710
7710
7710
7710
7710
7710
7710
7710
7710
7710
7710
7710
7710
7710
7710
7710
7710
7543
7543
7543
7543
7543
7543
7543
7543
7543
7543
7543
7543
7543
7543
7543
7543
7543
7543
7543
7543
7543
7543
7543
7543
7543
7543
7543
7543
7543
7543
7543
7543
7543
7543
7543
7543
7543
7543
7543
7543
7543
7543
7543
7543
7543
7543
7543
7543
7543
7543
7543
7543
7543
7543
7543
7543
7543
7543
7543
7543
7543
7543
7543
7543
7543
7543
7543
7543
7543
7543
7543
7543
7543
7543
7543
7543
7543
7543
7543
7543
7543
7543
7543
7543
7543
7543
7543
7543
7543
7543
7543
7543
7543
7543
7543
7543
7543
7543
7543
7543
7543
7543
7543
7543
7543
7543
7543
7543
7543
7543
7543
7543
7543
7543
7543
7543
7543
7543
7543
7543
7543
7543
7543
7543
7543
7543
7543
7543
7543
7543
7543
7543
7543
7543
7543
7543
7543
7543
7543
7543
7543
7543
7543
7543
7543
7543
7543
7543
7543
7543
7543
7543
7543
7543
7543
7543
7543
7543
7543
7543
7543
7543
7543
7543
7543
7543
7543
7543
7543
7543
7543
7543
7543
7543
7543
7543
7543
7543
7543
7543
7543
7543
7543
7543
7543
7543
7543
7543
7543
7543
7543
7543
7543
7543
7543
7543
7543
7543
7543
7543
7543
7543
7543
7543
7543
7543
7543
7543
7543
7543
7543
7543
7543
7543
7543
7543
7543
7543
7543
7543
7543
7543
7543
7543
7543
7543
7543
7543
7543
7543
7543
7543
7543
7543
7543
7543
7543
7543
7543
7543
7543
7543
7543
7543
7543
7543
7543
7543
7543
7543
7543
7543
7543
7543
7543
7543
7543
7543
7543
7543
7543
7543
7543
7543
7543
7543
7543
7543
7543
7543
7543
7543
7543
7543
7543
7543
7543
7543
7543
7543
7543
7543
7543
7543
7543
7543
7543
7543
7543
7543
7543
7543
7543
7543
7543
7543
7543
7543
7543
7543
7543
7543
7543
7543
7543
7543
7543
7543
7543
7543
7543
7543
7543
7543
7543
7543
7543
7543
7543
7543
7543
7543
7543
7543
7543
7543
7543
7543
7543
7543
7543
7543
7543
7543
7543
7543
7543
7543
7543
7543
7543
7543
7543
7543
7543
7543
7543
7543
7543
7543
7543
7543
7543
7543
7543
7543
7543
7543
7543
7543
7543
7543
7543
7543
7543
7543
7543
7543
7543
7543
7543
7543
7543
7543
7543
7543
7543
7543
7543
7543
7543
7543
7543
7543
7543
7543
7543
7543
7543
7543
7543
7543
7543
7543
7543
7543
7543
7543
7543
7543
7543
7543
7543
7543
7543
7543
7543
7543
7543
7543
7543
7543
7543
7543
7543
7543
7543
7543
7543
7543
7543
7543
7543
7543
7543
7543
7543
7543
7543
7543
7543
7543
7543
7543
7543
7543
7543
7543
7543
7543
7543
7543
7543
7543
7543
7543
7543
7543
7543
7543
7543
7543
7543
7543
7543
7543
7543
7543
7543
7543
7543
7543
7543
7543
7543
7543
7543
7543
7543
7543
7543
7543
7543
7543
7543
7543
7543
7543
7543
7543
7543
7543
7543
7543
7543
7543
7543
7543
7543
7543
7543
7543
7543
7543
7543
7543
7543
7543
7543
7543
7543
7543
7543
7543
7543
7543
7543
7543
7543
7543
7543
7543
7543
7543
7543
7543
7543
7543
7543
7543
7543
7543
7543
7543
7543
7543
7543
7543
7543
7543
7543
7543
7543
7543
7543
7543
7543
7543
7543
7543
7543
7543
7543
7543
7543
7543
7543
7543
7543
7543
7543
7543
7543
7543
7543
7543
7543
7543
7543
7543
7543
7543
7543
7543
7543
7543
7543
7543
7543
7543
7543
7543
7543
7543
7543
7543
7543
7543
7543
7543
7543
7543
7543
7543
7543
7543
7543
7543
7543
7543
7543
7543
7543
7543
7543
7543
7543
7543
7543
7543
7543
7543
7543
7543
7543
7543
7543
7543
7543
7543
7543
7543
7543
7543
7543
7543
7543
7543
7543
7543
7543
7543
7543
7543
7543
7543
7543
7543
7543
7543
7543
7543
7543
7543
7543
7543
7543
7543
7543
7543
7543
7543
7543
7543
7543
7543
7543
7543
7543
7543
7543
7543
7543
7543
7543
7543
7543
7543
7543
7543
7543
7543
7543
7543
7543
7543
7543
7543
7543
7543
7543
7543
7543
7543
7543
7543
7543
7543
7543
7543
7543
7543
7543
7543
7543
7543
7543
7543
7543
7543
7543
7543
7543
7543
7543
7543
7543
7543
7543
7543
7543
7543
7543
7543
7543
7543
7543
7543
7543
7543
7543
7543
7543
7543
7543
7543
7543
7543
7543
7543
7543
7543
7543
7543
7543
7543
7543
7543
7543
7543
7543
7543
7543
7543
7543
7543
7543
7543
7543
7543
7543
7543
7543
7543
7543
7543
7543
7543
7543
7543
7543
7543
7543
7543
7543
7543
7543
7543
7543
7543
7543
7543
7543
7543
7543
7543
7543
7543
7543
7543
7543
7543
7543
7543
7543
7543
7543
7543
7543
7543
7543
7543
7543
7543
7543
7543
7543
7543
7543
7543
7543
7543
7543
7543
7543
7543
7543
7543
7543
7543
7543
7543
7543
7543
7543
7543
7543
7543
7543
7543
7543
7543
7543
7543
7543
7543
7543
7543
7543
7543
7543
7543
7543
7543
7543
7543
7543
7543
7543
7543
7543
7543
7543
7543
7543
7543
7543
7543
7543
7543
7543
7543
7543
7543
7543
7543
7543
7543
7543
7543
7543
7543
7543
7543
7543
7543
7543
7543
7543
7543
7543
7543
7543
7543
7543
7543
7543
7543
7543
7543
7543
7543
7543
7543
7543
7543
7543
7543
7543
7543
7543
7543
7543
7543
7543
7543
7543
7543
7543
7543
7543
7543
7543
7543
7543
7543
7543
7543
7543
7543
7543
7543
7543
7543
7543
7543
7543
7543
7543
7543
7543
7543
7543
7543
7543
7543
7543
7543
7543
7543
7543
7543
7543
7543
7543
7543
7543
7543
7543
7543
7543
7543
7543
7543
7543
7543
7543
7543
7543
7543
7543
7543
7543
7543
7543
7543
7543
7543
7543
7543
7543
7543
7543
7543
7543
7543
7543
7543
7543
7543
7543
7543
7543
7543
7543
7543
7543
7543
7543
7543
7543
7543
7543
7543
7543
7543
7543
7543
7543
7543
7543
7543
7543
7543
7543
7543
7543
7543
7543
7543
7543
7543
7543
7543
7543
7543
7543
7543
7543
7543
7543
7543
7543
7543
7543
7543
7543
7543
7543
7543
7543
7543
7543
7543
7543
7543
7543
7543
7543
7543
7543
7543
7543
7543
7543
7543
7543
7543
7543
7543
7543
7543
7543
7543
7543
7543
7543
7543
7543
7543
7543
7543
7543
7543
7543
7543
7543
7543
7543
7543
7543
7543
7543
7543
7543
7543
7543
7543
7543
7543
7543
7543
7543
7543
7543
7543
7543
7543
7543
7543
7543
7543
7543
7543
7543
7543
7543
7543
7543
7543
7543
7543
7543
7543
7543
7543
7543
7543
7543
7543
7543
7543
7543
7543
7543
7543
7543
7543
7543
7543
7543
7543
7543
7543
7543
7543
7543
7543
7543
7543
7543
7543
7543
7543
7543
7543
7543
7543
7543
7543
7543
7543
7543
7543
7543
7543
7543
7543
7543
7543
7543
7543
7543
7543
7543
7543
7543
7543
7543
7543
7543
7543
7543
7543
7543
7543
7543
7543
7543
7543
7543
7543
7543
7543
7543
7543
7543
7543
7543
7543
7543
7543
7543
7543
7543
7543
7543
7543
7543
7543
7543
7543
7543
7543
7543
7543
7543
7543
7543
7543
7543
7543
7543
7543
7543
7543
7543
7543
7543
7543
7543
7543
7543
7543
7543
7543
7543
7543
7543
7543
7543
7543
7543
7543
7543
7543
7543
7543
7543
7543
7543
7543
7543
7543
7543
7543
7543
7543
7543
7543
7543
7543
7543
7543
7543
7543
7543
7543
7543
7543
7543
7543
7543
7543
7543
7543
7543
7543
7543
7543
7543
7543
7543
7543
7543
7543
7543
7543
7543
7543
7543
7543
7543
7543
7543
7543
7543
7543
7543
7543
7543
7543
7543
7543
7543
7543
7543
7543
7543
7543
7543
7543
7543
7543
7543
7543
7543
7543
7543
7543
7543
7543
7543
7543
7543
7543
7543
7543
7543
7543
7543
7543
7543
7543
7543
7543
7543
7543
7543
7543
7543
7543
7543
7543
7543
7543
7543
7543
7543
7543
7543
7543
7543
7543
7543
7543
7543
7543
7543
7543
7543
7543
7543
7543
7543
7543
7543
7543
7543
7543
7543
7543
7543
7543
7543
7543
7543
7543
7543
7543
7543
7543
7543
7543
7543
7543
7543
7543
7543
7543
7543
7543
7543
7543
7543
7543
7543
7543
7543
7543
7543
7543
7543
7543
7543
7543
7543
7543
7543
7543
7543
7543
7543
7543
7543
7543
7543
7543
7543
7543
7543
7543
7543
7543
7543
